\* Transportation_Problem *\
Minimize
Total_Cost: 5122440 x_RRA_FRKBR_('ADE_RAJKOT_GUJ',_'ALU_THANJAVUR_TN')
 + 5038924 x_Wheat_('BGS_BEGUSARAI_BIH',_'BRGA_SAMBALPUR_OD')
Subject To
_C1: x_RRA_FRKBR_('ADE_RAJKOT_GUJ',_'ALU_THANJAVUR_TN') <= 1
_C2: x_Wheat_('BGS_BEGUSARAI_BIH',_'BRGA_SAMBALPUR_OD') <= 1
_C3: x_RRA_FRKBR_('ADE_RAJKOT_GUJ',_'ALU_THANJAVUR_TN') >= 1
_C4: x_Wheat_('BGS_BEGUSARAI_BIH',_'BRGA_SAMBALPUR_OD') >= 1
Bounds
 x_RRA_FRKBR_('ADE_RAJKOT_GUJ',_'ALU_THANJAVUR_TN') free
 x_Wheat_('BGS_BEGUSARAI_BIH',_'BRGA_SAMBALPUR_OD') free
Generals
x_RRA_FRKBR_('ADE_RAJKOT_GUJ',_'ALU_THANJAVUR_TN')
x_Wheat_('BGS_BEGUSARAI_BIH',_'BRGA_SAMBALPUR_OD')
End
